\ SCIP STATISTICS
\   Problem name     : ../data/setI/n100_100_0.10_0.75.sukp
\   Variables        : 200 (100 binary, 0 integer, 0 implicit integer, 100 continuous)
\   Constraints      : 993
Maximize
 Obj: +38 x_0 +502 x_1 +485 x_2 +258 x_3 +69 x_4 +409 x_5 +444 x_6 +27 x_7 +120 x_8 +239 x_9 +231 x_10
      +165 x_11 +414 x_12 +43 x_13 +175 x_14 +101 x_15 +372 x_16 +142 x_17 +334 x_18 +268 x_19 +132 x_20
      +491 x_21 +373 x_22 +417 x_23 +360 x_24 +494 x_25 +520 x_26 +385 x_27 +227 x_28 +101 x_29 +360 x_30
      +137 x_31 +204 x_32 +487 x_33 +304 x_34 +229 x_35 +128 x_36 +152 x_37 +350 x_38 +444 x_39 +315 x_40
      +152 x_41 +268 x_42 +435 x_43 +461 x_44 +510 x_45 +398 x_46 +157 x_47 +407 x_48 +183 x_49 +94 x_50
      +192 x_51 +211 x_52 +358 x_53 +360 x_54 +420 x_55 +399 x_56 +143 x_57 +517 x_58 +435 x_59 +161 x_60
      +348 x_61 +513 x_62 +370 x_63 +313 x_64 +487 x_65 +43 x_66 +161 x_67 +445 x_68 +305 x_69 +478 x_70
      +213 x_71 +450 x_72 +411 x_73 +469 x_74 +402 x_75 +155 x_76 +336 x_77 +32 x_78 +79 x_79 +457 x_80
      +64 x_81 +280 x_82 +398 x_83 +461 x_84 +222 x_85 +94 x_86 +442 x_87 +378 x_88 +487 x_89 +32 x_90
      +51 x_91 +505 x_92 +108 x_93 +418 x_94 +377 x_95 +502 x_96 +474 x_97 +247 x_98 +493 x_99
Subject to
 capacity: +91 y_0 +329 y_1 +132 y_2 +220 y_3 +54 y_4 +25 y_5 +188 y_6 +292 y_7 +47 y_8 +32 y_9 +249 y_10
  +15 y_11 +51 y_12 +193 y_13 +283 y_14 +123 y_15 +187 y_16 +14 y_17 +196 y_18 +85 y_19 +51 y_20 +57 y_21
  +69 y_22 +16 y_23 +168 y_24 +313 y_25 +124 y_26 +150 y_27 +222 y_28 +135 y_29 +89 y_30 +67 y_31 +225 y_32
  +207 y_33 +168 y_34 +251 y_35 +28 y_36 +219 y_37 +39 y_38 +248 y_39 +301 y_40 +310 y_41 +175 y_42 +194 y_43
  +327 y_44 +241 y_45 +187 y_46 +95 y_47 +221 y_48 +103 y_49 +104 y_50 +55 y_51 +130 y_52 +20 y_53 +25 y_54
  +115 y_55 +156 y_56 +229 y_57 +285 y_58 +11 y_59 +48 y_60 +288 y_61 +101 y_62 +247 y_63 +17 y_64 +80 y_65
  +15 y_66 +313 y_67 +261 y_68 +39 y_69 +30 y_70 +257 y_71 +164 y_72 +71 y_73 +255 y_74 +321 y_75 +330 y_76
  +242 y_77 +44 y_78 +293 y_79 +153 y_80 +258 y_81 +120 y_82 +90 y_83 +45 y_84 +116 y_85 +126 y_86 +330 y_87
  +103 y_88 +120 y_89 +64 y_90 +25 y_91 +193 y_92 +106 y_93 +208 y_94 +58 y_95 +127 y_96 +158 y_97 +143 y_98
  +70 y_99 <= +11223
 R_0_7: +1 y_7 -1 x_0 >= +0
 R_0_19: +1 y_19 -1 x_0 >= +0
 R_0_20: +1 y_20 -1 x_0 >= +0
 R_0_22: +1 y_22 -1 x_0 >= +0
 R_0_50: +1 y_50 -1 x_0 >= +0
 R_0_51: +1 y_51 -1 x_0 >= +0
 R_0_55: +1 y_55 -1 x_0 >= +0
 R_0_59: +1 y_59 -1 x_0 >= +0
 R_0_61: +1 y_61 -1 x_0 >= +0
 R_0_63: +1 y_63 -1 x_0 >= +0
 R_0_68: +1 y_68 -1 x_0 >= +0
 R_0_71: +1 y_71 -1 x_0 >= +0
 R_0_92: +1 y_92 -1 x_0 >= +0
 R_0_98: +1 y_98 -1 x_0 >= +0
 R_1_2: +1 y_2 -1 x_1 >= +0
 R_1_8: +1 y_8 -1 x_1 >= +0
 R_1_10: +1 y_10 -1 x_1 >= +0
 R_1_35: +1 y_35 -1 x_1 >= +0
 R_1_48: +1 y_48 -1 x_1 >= +0
 R_1_52: +1 y_52 -1 x_1 >= +0
 R_1_54: +1 y_54 -1 x_1 >= +0
 R_1_68: +1 y_68 -1 x_1 >= +0
 R_1_93: +1 y_93 -1 x_1 >= +0
 R_1_97: +1 y_97 -1 x_1 >= +0
 R_2_0: +1 y_0 -1 x_2 >= +0
 R_2_12: +1 y_12 -1 x_2 >= +0
 R_2_15: +1 y_15 -1 x_2 >= +0
 R_2_18: +1 y_18 -1 x_2 >= +0
 R_2_30: +1 y_30 -1 x_2 >= +0
 R_2_46: +1 y_46 -1 x_2 >= +0
 R_2_58: +1 y_58 -1 x_2 >= +0
 R_2_71: +1 y_71 -1 x_2 >= +0
 R_2_88: +1 y_88 -1 x_2 >= +0
 R_2_94: +1 y_94 -1 x_2 >= +0
 R_3_2: +1 y_2 -1 x_3 >= +0
 R_3_40: +1 y_40 -1 x_3 >= +0
 R_3_47: +1 y_47 -1 x_3 >= +0
 R_3_58: +1 y_58 -1 x_3 >= +0
 R_3_77: +1 y_77 -1 x_3 >= +0
 R_3_87: +1 y_87 -1 x_3 >= +0
 R_3_95: +1 y_95 -1 x_3 >= +0
 R_4_6: +1 y_6 -1 x_4 >= +0
 R_4_11: +1 y_11 -1 x_4 >= +0
 R_4_12: +1 y_12 -1 x_4 >= +0
 R_4_24: +1 y_24 -1 x_4 >= +0
 R_4_35: +1 y_35 -1 x_4 >= +0
 R_4_44: +1 y_44 -1 x_4 >= +0
 R_4_54: +1 y_54 -1 x_4 >= +0
 R_4_55: +1 y_55 -1 x_4 >= +0
 R_4_72: +1 y_72 -1 x_4 >= +0
 R_4_88: +1 y_88 -1 x_4 >= +0
 R_4_91: +1 y_91 -1 x_4 >= +0
 R_4_99: +1 y_99 -1 x_4 >= +0
 R_5_12: +1 y_12 -1 x_5 >= +0
 R_5_13: +1 y_13 -1 x_5 >= +0
 R_5_27: +1 y_27 -1 x_5 >= +0
 R_5_44: +1 y_44 -1 x_5 >= +0
 R_5_50: +1 y_50 -1 x_5 >= +0
 R_5_52: +1 y_52 -1 x_5 >= +0
 R_5_62: +1 y_62 -1 x_5 >= +0
 R_5_91: +1 y_91 -1 x_5 >= +0
 R_5_98: +1 y_98 -1 x_5 >= +0
 R_6_18: +1 y_18 -1 x_6 >= +0
 R_6_19: +1 y_19 -1 x_6 >= +0
 R_6_31: +1 y_31 -1 x_6 >= +0
 R_6_34: +1 y_34 -1 x_6 >= +0
 R_6_47: +1 y_47 -1 x_6 >= +0
 R_6_56: +1 y_56 -1 x_6 >= +0
 R_6_66: +1 y_66 -1 x_6 >= +0
 R_6_75: +1 y_75 -1 x_6 >= +0
 R_6_76: +1 y_76 -1 x_6 >= +0
 R_6_77: +1 y_77 -1 x_6 >= +0
 R_6_83: +1 y_83 -1 x_6 >= +0
 R_6_85: +1 y_85 -1 x_6 >= +0
 R_6_86: +1 y_86 -1 x_6 >= +0
 R_6_91: +1 y_91 -1 x_6 >= +0
 R_6_93: +1 y_93 -1 x_6 >= +0
 R_6_94: +1 y_94 -1 x_6 >= +0
 R_6_96: +1 y_96 -1 x_6 >= +0
 R_6_98: +1 y_98 -1 x_6 >= +0
 R_6_99: +1 y_99 -1 x_6 >= +0
 R_7_9: +1 y_9 -1 x_7 >= +0
 R_7_12: +1 y_12 -1 x_7 >= +0
 R_7_19: +1 y_19 -1 x_7 >= +0
 R_7_21: +1 y_21 -1 x_7 >= +0
 R_7_52: +1 y_52 -1 x_7 >= +0
 R_7_58: +1 y_58 -1 x_7 >= +0
 R_7_64: +1 y_64 -1 x_7 >= +0
 R_8_13: +1 y_13 -1 x_8 >= +0
 R_8_17: +1 y_17 -1 x_8 >= +0
 R_8_39: +1 y_39 -1 x_8 >= +0
 R_8_47: +1 y_47 -1 x_8 >= +0
 R_8_55: +1 y_55 -1 x_8 >= +0
 R_8_65: +1 y_65 -1 x_8 >= +0
 R_8_71: +1 y_71 -1 x_8 >= +0
 R_8_73: +1 y_73 -1 x_8 >= +0
 R_8_74: +1 y_74 -1 x_8 >= +0
 R_8_87: +1 y_87 -1 x_8 >= +0
 R_8_88: +1 y_88 -1 x_8 >= +0
 R_8_91: +1 y_91 -1 x_8 >= +0
 R_8_99: +1 y_99 -1 x_8 >= +0
 R_9_9: +1 y_9 -1 x_9 >= +0
 R_9_23: +1 y_23 -1 x_9 >= +0
 R_9_34: +1 y_34 -1 x_9 >= +0
 R_9_44: +1 y_44 -1 x_9 >= +0
 R_9_55: +1 y_55 -1 x_9 >= +0
 R_9_74: +1 y_74 -1 x_9 >= +0
 R_9_77: +1 y_77 -1 x_9 >= +0
 R_9_81: +1 y_81 -1 x_9 >= +0
 R_9_82: +1 y_82 -1 x_9 >= +0
 R_9_85: +1 y_85 -1 x_9 >= +0
 R_9_90: +1 y_90 -1 x_9 >= +0
 R_10_26: +1 y_26 -1 x_10 >= +0
 R_10_35: +1 y_35 -1 x_10 >= +0
 R_10_39: +1 y_39 -1 x_10 >= +0
 R_10_40: +1 y_40 -1 x_10 >= +0
 R_10_43: +1 y_43 -1 x_10 >= +0
 R_10_44: +1 y_44 -1 x_10 >= +0
 R_10_48: +1 y_48 -1 x_10 >= +0
 R_10_78: +1 y_78 -1 x_10 >= +0
 R_10_80: +1 y_80 -1 x_10 >= +0
 R_10_94: +1 y_94 -1 x_10 >= +0
 R_10_99: +1 y_99 -1 x_10 >= +0
 R_11_34: +1 y_34 -1 x_11 >= +0
 R_11_39: +1 y_39 -1 x_11 >= +0
 R_11_71: +1 y_71 -1 x_11 >= +0
 R_11_75: +1 y_75 -1 x_11 >= +0
 R_11_86: +1 y_86 -1 x_11 >= +0
 R_11_95: +1 y_95 -1 x_11 >= +0
 R_12_4: +1 y_4 -1 x_12 >= +0
 R_12_17: +1 y_17 -1 x_12 >= +0
 R_12_19: +1 y_19 -1 x_12 >= +0
 R_12_39: +1 y_39 -1 x_12 >= +0
 R_12_46: +1 y_46 -1 x_12 >= +0
 R_12_52: +1 y_52 -1 x_12 >= +0
 R_12_56: +1 y_56 -1 x_12 >= +0
 R_12_63: +1 y_63 -1 x_12 >= +0
 R_12_93: +1 y_93 -1 x_12 >= +0
 R_13_3: +1 y_3 -1 x_13 >= +0
 R_13_8: +1 y_8 -1 x_13 >= +0
 R_13_11: +1 y_11 -1 x_13 >= +0
 R_13_15: +1 y_15 -1 x_13 >= +0
 R_13_19: +1 y_19 -1 x_13 >= +0
 R_13_20: +1 y_20 -1 x_13 >= +0
 R_13_24: +1 y_24 -1 x_13 >= +0
 R_13_42: +1 y_42 -1 x_13 >= +0
 R_13_55: +1 y_55 -1 x_13 >= +0
 R_13_60: +1 y_60 -1 x_13 >= +0
 R_13_62: +1 y_62 -1 x_13 >= +0
 R_13_64: +1 y_64 -1 x_13 >= +0
 R_13_68: +1 y_68 -1 x_13 >= +0
 R_13_71: +1 y_71 -1 x_13 >= +0
 R_13_89: +1 y_89 -1 x_13 >= +0
 R_13_90: +1 y_90 -1 x_13 >= +0
 R_13_91: +1 y_91 -1 x_13 >= +0
 R_13_92: +1 y_92 -1 x_13 >= +0
 R_13_97: +1 y_97 -1 x_13 >= +0
 R_14_29: +1 y_29 -1 x_14 >= +0
 R_14_30: +1 y_30 -1 x_14 >= +0
 R_14_53: +1 y_53 -1 x_14 >= +0
 R_14_62: +1 y_62 -1 x_14 >= +0
 R_14_63: +1 y_63 -1 x_14 >= +0
 R_14_73: +1 y_73 -1 x_14 >= +0
 R_14_74: +1 y_74 -1 x_14 >= +0
 R_14_77: +1 y_77 -1 x_14 >= +0
 R_14_85: +1 y_85 -1 x_14 >= +0
 R_14_93: +1 y_93 -1 x_14 >= +0
 R_14_94: +1 y_94 -1 x_14 >= +0
 R_14_95: +1 y_95 -1 x_14 >= +0
 R_14_96: +1 y_96 -1 x_14 >= +0
 R_15_3: +1 y_3 -1 x_15 >= +0
 R_15_11: +1 y_11 -1 x_15 >= +0
 R_15_21: +1 y_21 -1 x_15 >= +0
 R_15_40: +1 y_40 -1 x_15 >= +0
 R_15_53: +1 y_53 -1 x_15 >= +0
 R_15_57: +1 y_57 -1 x_15 >= +0
 R_15_61: +1 y_61 -1 x_15 >= +0
 R_15_62: +1 y_62 -1 x_15 >= +0
 R_15_83: +1 y_83 -1 x_15 >= +0
 R_15_89: +1 y_89 -1 x_15 >= +0
 R_15_91: +1 y_91 -1 x_15 >= +0
 R_15_93: +1 y_93 -1 x_15 >= +0
 R_16_0: +1 y_0 -1 x_16 >= +0
 R_16_12: +1 y_12 -1 x_16 >= +0
 R_16_16: +1 y_16 -1 x_16 >= +0
 R_16_18: +1 y_18 -1 x_16 >= +0
 R_16_23: +1 y_23 -1 x_16 >= +0
 R_16_32: +1 y_32 -1 x_16 >= +0
 R_16_36: +1 y_36 -1 x_16 >= +0
 R_16_37: +1 y_37 -1 x_16 >= +0
 R_16_46: +1 y_46 -1 x_16 >= +0
 R_16_49: +1 y_49 -1 x_16 >= +0
 R_16_67: +1 y_67 -1 x_16 >= +0
 R_16_71: +1 y_71 -1 x_16 >= +0
 R_16_74: +1 y_74 -1 x_16 >= +0
 R_16_79: +1 y_79 -1 x_16 >= +0
 R_16_80: +1 y_80 -1 x_16 >= +0
 R_16_84: +1 y_84 -1 x_16 >= +0
 R_16_87: +1 y_87 -1 x_16 >= +0
 R_17_9: +1 y_9 -1 x_17 >= +0
 R_17_17: +1 y_17 -1 x_17 >= +0
 R_17_46: +1 y_46 -1 x_17 >= +0
 R_17_57: +1 y_57 -1 x_17 >= +0
 R_17_70: +1 y_70 -1 x_17 >= +0
 R_17_98: +1 y_98 -1 x_17 >= +0
 R_18_5: +1 y_5 -1 x_18 >= +0
 R_18_29: +1 y_29 -1 x_18 >= +0
 R_18_40: +1 y_40 -1 x_18 >= +0
 R_18_43: +1 y_43 -1 x_18 >= +0
 R_18_57: +1 y_57 -1 x_18 >= +0
 R_18_77: +1 y_77 -1 x_18 >= +0
 R_18_87: +1 y_87 -1 x_18 >= +0
 R_18_91: +1 y_91 -1 x_18 >= +0
 R_18_94: +1 y_94 -1 x_18 >= +0
 R_19_0: +1 y_0 -1 x_19 >= +0
 R_19_5: +1 y_5 -1 x_19 >= +0
 R_19_6: +1 y_6 -1 x_19 >= +0
 R_19_11: +1 y_11 -1 x_19 >= +0
 R_19_20: +1 y_20 -1 x_19 >= +0
 R_19_24: +1 y_24 -1 x_19 >= +0
 R_19_27: +1 y_27 -1 x_19 >= +0
 R_19_28: +1 y_28 -1 x_19 >= +0
 R_19_34: +1 y_34 -1 x_19 >= +0
 R_19_37: +1 y_37 -1 x_19 >= +0
 R_19_47: +1 y_47 -1 x_19 >= +0
 R_19_59: +1 y_59 -1 x_19 >= +0
 R_19_62: +1 y_62 -1 x_19 >= +0
 R_19_72: +1 y_72 -1 x_19 >= +0
 R_19_80: +1 y_80 -1 x_19 >= +0
 R_19_82: +1 y_82 -1 x_19 >= +0
 R_19_97: +1 y_97 -1 x_19 >= +0
 R_20_2: +1 y_2 -1 x_20 >= +0
 R_20_5: +1 y_5 -1 x_20 >= +0
 R_20_6: +1 y_6 -1 x_20 >= +0
 R_20_18: +1 y_18 -1 x_20 >= +0
 R_20_36: +1 y_36 -1 x_20 >= +0
 R_20_38: +1 y_38 -1 x_20 >= +0
 R_20_53: +1 y_53 -1 x_20 >= +0
 R_20_63: +1 y_63 -1 x_20 >= +0
 R_20_68: +1 y_68 -1 x_20 >= +0
 R_20_70: +1 y_70 -1 x_20 >= +0
 R_20_71: +1 y_71 -1 x_20 >= +0
 R_20_76: +1 y_76 -1 x_20 >= +0
 R_20_80: +1 y_80 -1 x_20 >= +0
 R_20_90: +1 y_90 -1 x_20 >= +0
 R_20_95: +1 y_95 -1 x_20 >= +0
 R_21_16: +1 y_16 -1 x_21 >= +0
 R_21_22: +1 y_22 -1 x_21 >= +0
 R_21_23: +1 y_23 -1 x_21 >= +0
 R_21_36: +1 y_36 -1 x_21 >= +0
 R_21_52: +1 y_52 -1 x_21 >= +0
 R_21_75: +1 y_75 -1 x_21 >= +0
 R_21_77: +1 y_77 -1 x_21 >= +0
 R_21_80: +1 y_80 -1 x_21 >= +0
 R_21_87: +1 y_87 -1 x_21 >= +0
 R_21_88: +1 y_88 -1 x_21 >= +0
 R_21_91: +1 y_91 -1 x_21 >= +0
 R_21_99: +1 y_99 -1 x_21 >= +0
 R_22_0: +1 y_0 -1 x_22 >= +0
 R_22_7: +1 y_7 -1 x_22 >= +0
 R_22_17: +1 y_17 -1 x_22 >= +0
 R_22_25: +1 y_25 -1 x_22 >= +0
 R_22_34: +1 y_34 -1 x_22 >= +0
 R_22_46: +1 y_46 -1 x_22 >= +0
 R_22_67: +1 y_67 -1 x_22 >= +0
 R_22_77: +1 y_77 -1 x_22 >= +0
 R_22_80: +1 y_80 -1 x_22 >= +0
 R_22_83: +1 y_83 -1 x_22 >= +0
 R_22_89: +1 y_89 -1 x_22 >= +0
 R_23_10: +1 y_10 -1 x_23 >= +0
 R_23_12: +1 y_12 -1 x_23 >= +0
 R_23_16: +1 y_16 -1 x_23 >= +0
 R_23_18: +1 y_18 -1 x_23 >= +0
 R_23_27: +1 y_27 -1 x_23 >= +0
 R_23_35: +1 y_35 -1 x_23 >= +0
 R_23_39: +1 y_39 -1 x_23 >= +0
 R_23_45: +1 y_45 -1 x_23 >= +0
 R_23_57: +1 y_57 -1 x_23 >= +0
 R_23_60: +1 y_60 -1 x_23 >= +0
 R_23_64: +1 y_64 -1 x_23 >= +0
 R_23_70: +1 y_70 -1 x_23 >= +0
 R_23_74: +1 y_74 -1 x_23 >= +0
 R_23_75: +1 y_75 -1 x_23 >= +0
 R_23_82: +1 y_82 -1 x_23 >= +0
 R_23_83: +1 y_83 -1 x_23 >= +0
 R_24_1: +1 y_1 -1 x_24 >= +0
 R_24_3: +1 y_3 -1 x_24 >= +0
 R_24_17: +1 y_17 -1 x_24 >= +0
 R_24_28: +1 y_28 -1 x_24 >= +0
 R_24_31: +1 y_31 -1 x_24 >= +0
 R_24_34: +1 y_34 -1 x_24 >= +0
 R_24_57: +1 y_57 -1 x_24 >= +0
 R_24_60: +1 y_60 -1 x_24 >= +0
 R_24_62: +1 y_62 -1 x_24 >= +0
 R_24_63: +1 y_63 -1 x_24 >= +0
 R_24_68: +1 y_68 -1 x_24 >= +0
 R_24_69: +1 y_69 -1 x_24 >= +0
 R_24_70: +1 y_70 -1 x_24 >= +0
 R_24_82: +1 y_82 -1 x_24 >= +0
 R_25_33: +1 y_33 -1 x_25 >= +0
 R_25_42: +1 y_42 -1 x_25 >= +0
 R_25_43: +1 y_43 -1 x_25 >= +0
 R_25_64: +1 y_64 -1 x_25 >= +0
 R_25_74: +1 y_74 -1 x_25 >= +0
 R_25_75: +1 y_75 -1 x_25 >= +0
 R_25_97: +1 y_97 -1 x_25 >= +0
 R_26_21: +1 y_21 -1 x_26 >= +0
 R_26_64: +1 y_64 -1 x_26 >= +0
 R_26_71: +1 y_71 -1 x_26 >= +0
 R_26_82: +1 y_82 -1 x_26 >= +0
 R_26_92: +1 y_92 -1 x_26 >= +0
 R_27_24: +1 y_24 -1 x_27 >= +0
 R_27_35: +1 y_35 -1 x_27 >= +0
 R_27_55: +1 y_55 -1 x_27 >= +0
 R_27_79: +1 y_79 -1 x_27 >= +0
 R_27_94: +1 y_94 -1 x_27 >= +0
 R_28_1: +1 y_1 -1 x_28 >= +0
 R_28_7: +1 y_7 -1 x_28 >= +0
 R_28_24: +1 y_24 -1 x_28 >= +0
 R_28_38: +1 y_38 -1 x_28 >= +0
 R_28_40: +1 y_40 -1 x_28 >= +0
 R_28_50: +1 y_50 -1 x_28 >= +0
 R_28_53: +1 y_53 -1 x_28 >= +0
 R_28_55: +1 y_55 -1 x_28 >= +0
 R_28_59: +1 y_59 -1 x_28 >= +0
 R_28_61: +1 y_61 -1 x_28 >= +0
 R_28_69: +1 y_69 -1 x_28 >= +0
 R_28_78: +1 y_78 -1 x_28 >= +0
 R_28_82: +1 y_82 -1 x_28 >= +0
 R_29_18: +1 y_18 -1 x_29 >= +0
 R_29_21: +1 y_21 -1 x_29 >= +0
 R_29_25: +1 y_25 -1 x_29 >= +0
 R_29_34: +1 y_34 -1 x_29 >= +0
 R_29_44: +1 y_44 -1 x_29 >= +0
 R_29_60: +1 y_60 -1 x_29 >= +0
 R_29_70: +1 y_70 -1 x_29 >= +0
 R_29_79: +1 y_79 -1 x_29 >= +0
 R_29_84: +1 y_84 -1 x_29 >= +0
 R_29_91: +1 y_91 -1 x_29 >= +0
 R_29_94: +1 y_94 -1 x_29 >= +0
 R_29_96: +1 y_96 -1 x_29 >= +0
 R_29_97: +1 y_97 -1 x_29 >= +0
 R_30_9: +1 y_9 -1 x_30 >= +0
 R_30_11: +1 y_11 -1 x_30 >= +0
 R_30_25: +1 y_25 -1 x_30 >= +0
 R_30_35: +1 y_35 -1 x_30 >= +0
 R_30_42: +1 y_42 -1 x_30 >= +0
 R_30_48: +1 y_48 -1 x_30 >= +0
 R_30_60: +1 y_60 -1 x_30 >= +0
 R_30_73: +1 y_73 -1 x_30 >= +0
 R_30_74: +1 y_74 -1 x_30 >= +0
 R_30_88: +1 y_88 -1 x_30 >= +0
 R_31_1: +1 y_1 -1 x_31 >= +0
 R_31_9: +1 y_9 -1 x_31 >= +0
 R_31_22: +1 y_22 -1 x_31 >= +0
 R_31_30: +1 y_30 -1 x_31 >= +0
 R_31_40: +1 y_40 -1 x_31 >= +0
 R_31_53: +1 y_53 -1 x_31 >= +0
 R_31_60: +1 y_60 -1 x_31 >= +0
 R_31_68: +1 y_68 -1 x_31 >= +0
 R_31_72: +1 y_72 -1 x_31 >= +0
 R_31_90: +1 y_90 -1 x_31 >= +0
 R_32_11: +1 y_11 -1 x_32 >= +0
 R_32_44: +1 y_44 -1 x_32 >= +0
 R_32_50: +1 y_50 -1 x_32 >= +0
 R_32_60: +1 y_60 -1 x_32 >= +0
 R_32_65: +1 y_65 -1 x_32 >= +0
 R_32_71: +1 y_71 -1 x_32 >= +0
 R_32_74: +1 y_74 -1 x_32 >= +0
 R_32_91: +1 y_91 -1 x_32 >= +0
 R_33_0: +1 y_0 -1 x_33 >= +0
 R_33_17: +1 y_17 -1 x_33 >= +0
 R_33_24: +1 y_24 -1 x_33 >= +0
 R_33_34: +1 y_34 -1 x_33 >= +0
 R_33_49: +1 y_49 -1 x_33 >= +0
 R_33_50: +1 y_50 -1 x_33 >= +0
 R_33_83: +1 y_83 -1 x_33 >= +0
 R_33_87: +1 y_87 -1 x_33 >= +0
 R_34_14: +1 y_14 -1 x_34 >= +0
 R_34_23: +1 y_23 -1 x_34 >= +0
 R_34_28: +1 y_28 -1 x_34 >= +0
 R_34_29: +1 y_29 -1 x_34 >= +0
 R_34_31: +1 y_31 -1 x_34 >= +0
 R_34_35: +1 y_35 -1 x_34 >= +0
 R_34_60: +1 y_60 -1 x_34 >= +0
 R_34_73: +1 y_73 -1 x_34 >= +0
 R_34_93: +1 y_93 -1 x_34 >= +0
 R_35_3: +1 y_3 -1 x_35 >= +0
 R_35_4: +1 y_4 -1 x_35 >= +0
 R_35_5: +1 y_5 -1 x_35 >= +0
 R_35_11: +1 y_11 -1 x_35 >= +0
 R_35_14: +1 y_14 -1 x_35 >= +0
 R_35_18: +1 y_18 -1 x_35 >= +0
 R_35_27: +1 y_27 -1 x_35 >= +0
 R_35_35: +1 y_35 -1 x_35 >= +0
 R_35_46: +1 y_46 -1 x_35 >= +0
 R_35_80: +1 y_80 -1 x_35 >= +0
 R_36_6: +1 y_6 -1 x_36 >= +0
 R_36_13: +1 y_13 -1 x_36 >= +0
 R_36_18: +1 y_18 -1 x_36 >= +0
 R_36_32: +1 y_32 -1 x_36 >= +0
 R_36_34: +1 y_34 -1 x_36 >= +0
 R_36_38: +1 y_38 -1 x_36 >= +0
 R_36_60: +1 y_60 -1 x_36 >= +0
 R_36_63: +1 y_63 -1 x_36 >= +0
 R_36_74: +1 y_74 -1 x_36 >= +0
 R_37_26: +1 y_26 -1 x_37 >= +0
 R_37_34: +1 y_34 -1 x_37 >= +0
 R_37_38: +1 y_38 -1 x_37 >= +0
 R_37_42: +1 y_42 -1 x_37 >= +0
 R_37_51: +1 y_51 -1 x_37 >= +0
 R_37_56: +1 y_56 -1 x_37 >= +0
 R_37_62: +1 y_62 -1 x_37 >= +0
 R_37_66: +1 y_66 -1 x_37 >= +0
 R_37_69: +1 y_69 -1 x_37 >= +0
 R_37_82: +1 y_82 -1 x_37 >= +0
 R_37_97: +1 y_97 -1 x_37 >= +0
 R_38_1: +1 y_1 -1 x_38 >= +0
 R_38_5: +1 y_5 -1 x_38 >= +0
 R_38_34: +1 y_34 -1 x_38 >= +0
 R_38_52: +1 y_52 -1 x_38 >= +0
 R_38_56: +1 y_56 -1 x_38 >= +0
 R_38_65: +1 y_65 -1 x_38 >= +0
 R_38_75: +1 y_75 -1 x_38 >= +0
 R_38_89: +1 y_89 -1 x_38 >= +0
 R_39_5: +1 y_5 -1 x_39 >= +0
 R_39_10: +1 y_10 -1 x_39 >= +0
 R_39_27: +1 y_27 -1 x_39 >= +0
 R_39_29: +1 y_29 -1 x_39 >= +0
 R_39_42: +1 y_42 -1 x_39 >= +0
 R_39_43: +1 y_43 -1 x_39 >= +0
 R_39_55: +1 y_55 -1 x_39 >= +0
 R_39_57: +1 y_57 -1 x_39 >= +0
 R_39_73: +1 y_73 -1 x_39 >= +0
 R_39_74: +1 y_74 -1 x_39 >= +0
 R_39_91: +1 y_91 -1 x_39 >= +0
 R_39_97: +1 y_97 -1 x_39 >= +0
 R_40_8: +1 y_8 -1 x_40 >= +0
 R_40_10: +1 y_10 -1 x_40 >= +0
 R_40_31: +1 y_31 -1 x_40 >= +0
 R_40_36: +1 y_36 -1 x_40 >= +0
 R_40_42: +1 y_42 -1 x_40 >= +0
 R_40_46: +1 y_46 -1 x_40 >= +0
 R_40_47: +1 y_47 -1 x_40 >= +0
 R_40_55: +1 y_55 -1 x_40 >= +0
 R_40_67: +1 y_67 -1 x_40 >= +0
 R_40_69: +1 y_69 -1 x_40 >= +0
 R_40_77: +1 y_77 -1 x_40 >= +0
 R_40_81: +1 y_81 -1 x_40 >= +0
 R_41_14: +1 y_14 -1 x_41 >= +0
 R_41_18: +1 y_18 -1 x_41 >= +0
 R_41_20: +1 y_20 -1 x_41 >= +0
 R_41_24: +1 y_24 -1 x_41 >= +0
 R_41_35: +1 y_35 -1 x_41 >= +0
 R_41_51: +1 y_51 -1 x_41 >= +0
 R_41_53: +1 y_53 -1 x_41 >= +0
 R_41_58: +1 y_58 -1 x_41 >= +0
 R_41_63: +1 y_63 -1 x_41 >= +0
 R_41_83: +1 y_83 -1 x_41 >= +0
 R_41_94: +1 y_94 -1 x_41 >= +0
 R_42_4: +1 y_4 -1 x_42 >= +0
 R_42_26: +1 y_26 -1 x_42 >= +0
 R_42_31: +1 y_31 -1 x_42 >= +0
 R_42_34: +1 y_34 -1 x_42 >= +0
 R_42_62: +1 y_62 -1 x_42 >= +0
 R_42_66: +1 y_66 -1 x_42 >= +0
 R_42_72: +1 y_72 -1 x_42 >= +0
 R_42_91: +1 y_91 -1 x_42 >= +0
 R_42_98: +1 y_98 -1 x_42 >= +0
 R_43_22: +1 y_22 -1 x_43 >= +0
 R_43_40: +1 y_40 -1 x_43 >= +0
 R_43_55: +1 y_55 -1 x_43 >= +0
 R_43_69: +1 y_69 -1 x_43 >= +0
 R_44_4: +1 y_4 -1 x_44 >= +0
 R_44_7: +1 y_7 -1 x_44 >= +0
 R_44_8: +1 y_8 -1 x_44 >= +0
 R_44_9: +1 y_9 -1 x_44 >= +0
 R_44_13: +1 y_13 -1 x_44 >= +0
 R_44_14: +1 y_14 -1 x_44 >= +0
 R_44_25: +1 y_25 -1 x_44 >= +0
 R_44_31: +1 y_31 -1 x_44 >= +0
 R_44_33: +1 y_33 -1 x_44 >= +0
 R_44_34: +1 y_34 -1 x_44 >= +0
 R_44_35: +1 y_35 -1 x_44 >= +0
 R_44_38: +1 y_38 -1 x_44 >= +0
 R_44_42: +1 y_42 -1 x_44 >= +0
 R_44_50: +1 y_50 -1 x_44 >= +0
 R_44_58: +1 y_58 -1 x_44 >= +0
 R_44_78: +1 y_78 -1 x_44 >= +0
 R_45_11: +1 y_11 -1 x_45 >= +0
 R_45_22: +1 y_22 -1 x_45 >= +0
 R_45_24: +1 y_24 -1 x_45 >= +0
 R_45_25: +1 y_25 -1 x_45 >= +0
 R_45_42: +1 y_42 -1 x_45 >= +0
 R_45_45: +1 y_45 -1 x_45 >= +0
 R_45_74: +1 y_74 -1 x_45 >= +0
 R_45_79: +1 y_79 -1 x_45 >= +0
 R_45_97: +1 y_97 -1 x_45 >= +0
 R_45_98: +1 y_98 -1 x_45 >= +0
 R_46_1: +1 y_1 -1 x_46 >= +0
 R_46_8: +1 y_8 -1 x_46 >= +0
 R_46_11: +1 y_11 -1 x_46 >= +0
 R_46_21: +1 y_21 -1 x_46 >= +0
 R_46_25: +1 y_25 -1 x_46 >= +0
 R_46_40: +1 y_40 -1 x_46 >= +0
 R_46_42: +1 y_42 -1 x_46 >= +0
 R_46_44: +1 y_44 -1 x_46 >= +0
 R_46_68: +1 y_68 -1 x_46 >= +0
 R_46_73: +1 y_73 -1 x_46 >= +0
 R_46_76: +1 y_76 -1 x_46 >= +0
 R_46_85: +1 y_85 -1 x_46 >= +0
 R_47_38: +1 y_38 -1 x_47 >= +0
 R_47_43: +1 y_43 -1 x_47 >= +0
 R_47_52: +1 y_52 -1 x_47 >= +0
 R_47_57: +1 y_57 -1 x_47 >= +0
 R_47_69: +1 y_69 -1 x_47 >= +0
 R_47_78: +1 y_78 -1 x_47 >= +0
 R_47_83: +1 y_83 -1 x_47 >= +0
 R_47_87: +1 y_87 -1 x_47 >= +0
 R_48_0: +1 y_0 -1 x_48 >= +0
 R_48_24: +1 y_24 -1 x_48 >= +0
 R_48_41: +1 y_41 -1 x_48 >= +0
 R_48_54: +1 y_54 -1 x_48 >= +0
 R_48_56: +1 y_56 -1 x_48 >= +0
 R_48_79: +1 y_79 -1 x_48 >= +0
 R_48_94: +1 y_94 -1 x_48 >= +0
 R_49_1: +1 y_1 -1 x_49 >= +0
 R_49_2: +1 y_2 -1 x_49 >= +0
 R_49_17: +1 y_17 -1 x_49 >= +0
 R_49_65: +1 y_65 -1 x_49 >= +0
 R_49_81: +1 y_81 -1 x_49 >= +0
 R_49_85: +1 y_85 -1 x_49 >= +0
 R_50_4: +1 y_4 -1 x_50 >= +0
 R_50_19: +1 y_19 -1 x_50 >= +0
 R_50_32: +1 y_32 -1 x_50 >= +0
 R_50_40: +1 y_40 -1 x_50 >= +0
 R_50_41: +1 y_41 -1 x_50 >= +0
 R_50_42: +1 y_42 -1 x_50 >= +0
 R_50_43: +1 y_43 -1 x_50 >= +0
 R_50_59: +1 y_59 -1 x_50 >= +0
 R_50_73: +1 y_73 -1 x_50 >= +0
 R_50_87: +1 y_87 -1 x_50 >= +0
 R_50_88: +1 y_88 -1 x_50 >= +0
 R_50_99: +1 y_99 -1 x_50 >= +0
 R_51_12: +1 y_12 -1 x_51 >= +0
 R_51_15: +1 y_15 -1 x_51 >= +0
 R_51_38: +1 y_38 -1 x_51 >= +0
 R_51_53: +1 y_53 -1 x_51 >= +0
 R_52_0: +1 y_0 -1 x_52 >= +0
 R_52_7: +1 y_7 -1 x_52 >= +0
 R_52_18: +1 y_18 -1 x_52 >= +0
 R_52_31: +1 y_31 -1 x_52 >= +0
 R_52_35: +1 y_35 -1 x_52 >= +0
 R_52_36: +1 y_36 -1 x_52 >= +0
 R_52_46: +1 y_46 -1 x_52 >= +0
 R_52_62: +1 y_62 -1 x_52 >= +0
 R_52_68: +1 y_68 -1 x_52 >= +0
 R_52_69: +1 y_69 -1 x_52 >= +0
 R_52_77: +1 y_77 -1 x_52 >= +0
 R_52_81: +1 y_81 -1 x_52 >= +0
 R_52_94: +1 y_94 -1 x_52 >= +0
 R_53_3: +1 y_3 -1 x_53 >= +0
 R_53_7: +1 y_7 -1 x_53 >= +0
 R_53_13: +1 y_13 -1 x_53 >= +0
 R_53_18: +1 y_18 -1 x_53 >= +0
 R_53_42: +1 y_42 -1 x_53 >= +0
 R_53_44: +1 y_44 -1 x_53 >= +0
 R_53_48: +1 y_48 -1 x_53 >= +0
 R_53_52: +1 y_52 -1 x_53 >= +0
 R_53_66: +1 y_66 -1 x_53 >= +0
 R_53_72: +1 y_72 -1 x_53 >= +0
 R_54_9: +1 y_9 -1 x_54 >= +0
 R_54_29: +1 y_29 -1 x_54 >= +0
 R_54_65: +1 y_65 -1 x_54 >= +0
 R_54_67: +1 y_67 -1 x_54 >= +0
 R_55_1: +1 y_1 -1 x_55 >= +0
 R_55_4: +1 y_4 -1 x_55 >= +0
 R_55_23: +1 y_23 -1 x_55 >= +0
 R_55_24: +1 y_24 -1 x_55 >= +0
 R_55_27: +1 y_27 -1 x_55 >= +0
 R_55_40: +1 y_40 -1 x_55 >= +0
 R_55_45: +1 y_45 -1 x_55 >= +0
 R_55_52: +1 y_52 -1 x_55 >= +0
 R_55_73: +1 y_73 -1 x_55 >= +0
 R_55_78: +1 y_78 -1 x_55 >= +0
 R_55_99: +1 y_99 -1 x_55 >= +0
 R_56_13: +1 y_13 -1 x_56 >= +0
 R_56_15: +1 y_15 -1 x_56 >= +0
 R_56_16: +1 y_16 -1 x_56 >= +0
 R_56_39: +1 y_39 -1 x_56 >= +0
 R_56_83: +1 y_83 -1 x_56 >= +0
 R_57_2: +1 y_2 -1 x_57 >= +0
 R_57_5: +1 y_5 -1 x_57 >= +0
 R_57_11: +1 y_11 -1 x_57 >= +0
 R_57_14: +1 y_14 -1 x_57 >= +0
 R_57_18: +1 y_18 -1 x_57 >= +0
 R_57_35: +1 y_35 -1 x_57 >= +0
 R_57_38: +1 y_38 -1 x_57 >= +0
 R_57_56: +1 y_56 -1 x_57 >= +0
 R_57_58: +1 y_58 -1 x_57 >= +0
 R_57_62: +1 y_62 -1 x_57 >= +0
 R_57_72: +1 y_72 -1 x_57 >= +0
 R_57_98: +1 y_98 -1 x_57 >= +0
 R_58_3: +1 y_3 -1 x_58 >= +0
 R_58_4: +1 y_4 -1 x_58 >= +0
 R_58_8: +1 y_8 -1 x_58 >= +0
 R_58_11: +1 y_11 -1 x_58 >= +0
 R_58_40: +1 y_40 -1 x_58 >= +0
 R_58_43: +1 y_43 -1 x_58 >= +0
 R_58_60: +1 y_60 -1 x_58 >= +0
 R_58_68: +1 y_68 -1 x_58 >= +0
 R_58_76: +1 y_76 -1 x_58 >= +0
 R_58_86: +1 y_86 -1 x_58 >= +0
 R_58_93: +1 y_93 -1 x_58 >= +0
 R_58_97: +1 y_97 -1 x_58 >= +0
 R_59_2: +1 y_2 -1 x_59 >= +0
 R_59_11: +1 y_11 -1 x_59 >= +0
 R_59_25: +1 y_25 -1 x_59 >= +0
 R_59_28: +1 y_28 -1 x_59 >= +0
 R_59_30: +1 y_30 -1 x_59 >= +0
 R_59_50: +1 y_50 -1 x_59 >= +0
 R_59_61: +1 y_61 -1 x_59 >= +0
 R_59_67: +1 y_67 -1 x_59 >= +0
 R_59_82: +1 y_82 -1 x_59 >= +0
 R_60_27: +1 y_27 -1 x_60 >= +0
 R_60_40: +1 y_40 -1 x_60 >= +0
 R_60_53: +1 y_53 -1 x_60 >= +0
 R_60_56: +1 y_56 -1 x_60 >= +0
 R_60_67: +1 y_67 -1 x_60 >= +0
 R_60_75: +1 y_75 -1 x_60 >= +0
 R_60_80: +1 y_80 -1 x_60 >= +0
 R_61_0: +1 y_0 -1 x_61 >= +0
 R_61_5: +1 y_5 -1 x_61 >= +0
 R_61_6: +1 y_6 -1 x_61 >= +0
 R_61_10: +1 y_10 -1 x_61 >= +0
 R_61_11: +1 y_11 -1 x_61 >= +0
 R_61_12: +1 y_12 -1 x_61 >= +0
 R_61_16: +1 y_16 -1 x_61 >= +0
 R_61_29: +1 y_29 -1 x_61 >= +0
 R_61_45: +1 y_45 -1 x_61 >= +0
 R_61_50: +1 y_50 -1 x_61 >= +0
 R_61_56: +1 y_56 -1 x_61 >= +0
 R_61_58: +1 y_58 -1 x_61 >= +0
 R_61_66: +1 y_66 -1 x_61 >= +0
 R_61_86: +1 y_86 -1 x_61 >= +0
 R_61_93: +1 y_93 -1 x_61 >= +0
 R_62_28: +1 y_28 -1 x_62 >= +0
 R_62_30: +1 y_30 -1 x_62 >= +0
 R_62_52: +1 y_52 -1 x_62 >= +0
 R_62_56: +1 y_56 -1 x_62 >= +0
 R_62_64: +1 y_64 -1 x_62 >= +0
 R_62_74: +1 y_74 -1 x_62 >= +0
 R_62_79: +1 y_79 -1 x_62 >= +0
 R_62_80: +1 y_80 -1 x_62 >= +0
 R_62_91: +1 y_91 -1 x_62 >= +0
 R_63_7: +1 y_7 -1 x_63 >= +0
 R_63_19: +1 y_19 -1 x_63 >= +0
 R_63_20: +1 y_20 -1 x_63 >= +0
 R_63_36: +1 y_36 -1 x_63 >= +0
 R_63_39: +1 y_39 -1 x_63 >= +0
 R_63_43: +1 y_43 -1 x_63 >= +0
 R_63_45: +1 y_45 -1 x_63 >= +0
 R_63_57: +1 y_57 -1 x_63 >= +0
 R_63_58: +1 y_58 -1 x_63 >= +0
 R_63_76: +1 y_76 -1 x_63 >= +0
 R_63_83: +1 y_83 -1 x_63 >= +0
 R_63_84: +1 y_84 -1 x_63 >= +0
 R_63_87: +1 y_87 -1 x_63 >= +0
 R_64_0: +1 y_0 -1 x_64 >= +0
 R_64_1: +1 y_1 -1 x_64 >= +0
 R_64_7: +1 y_7 -1 x_64 >= +0
 R_64_14: +1 y_14 -1 x_64 >= +0
 R_64_19: +1 y_19 -1 x_64 >= +0
 R_64_29: +1 y_29 -1 x_64 >= +0
 R_64_30: +1 y_30 -1 x_64 >= +0
 R_64_39: +1 y_39 -1 x_64 >= +0
 R_64_66: +1 y_66 -1 x_64 >= +0
 R_64_91: +1 y_91 -1 x_64 >= +0
 R_65_12: +1 y_12 -1 x_65 >= +0
 R_65_26: +1 y_26 -1 x_65 >= +0
 R_65_86: +1 y_86 -1 x_65 >= +0
 R_66_5: +1 y_5 -1 x_66 >= +0
 R_66_11: +1 y_11 -1 x_66 >= +0
 R_66_30: +1 y_30 -1 x_66 >= +0
 R_66_42: +1 y_42 -1 x_66 >= +0
 R_66_45: +1 y_45 -1 x_66 >= +0
 R_66_73: +1 y_73 -1 x_66 >= +0
 R_66_78: +1 y_78 -1 x_66 >= +0
 R_66_89: +1 y_89 -1 x_66 >= +0
 R_66_93: +1 y_93 -1 x_66 >= +0
 R_66_96: +1 y_96 -1 x_66 >= +0
 R_66_97: +1 y_97 -1 x_66 >= +0
 R_67_0: +1 y_0 -1 x_67 >= +0
 R_67_2: +1 y_2 -1 x_67 >= +0
 R_67_11: +1 y_11 -1 x_67 >= +0
 R_67_16: +1 y_16 -1 x_67 >= +0
 R_67_36: +1 y_36 -1 x_67 >= +0
 R_67_38: +1 y_38 -1 x_67 >= +0
 R_67_52: +1 y_52 -1 x_67 >= +0
 R_67_53: +1 y_53 -1 x_67 >= +0
 R_67_57: +1 y_57 -1 x_67 >= +0
 R_67_61: +1 y_61 -1 x_67 >= +0
 R_67_78: +1 y_78 -1 x_67 >= +0
 R_67_87: +1 y_87 -1 x_67 >= +0
 R_67_89: +1 y_89 -1 x_67 >= +0
 R_67_95: +1 y_95 -1 x_67 >= +0
 R_68_11: +1 y_11 -1 x_68 >= +0
 R_68_63: +1 y_63 -1 x_68 >= +0
 R_68_72: +1 y_72 -1 x_68 >= +0
 R_68_74: +1 y_74 -1 x_68 >= +0
 R_68_76: +1 y_76 -1 x_68 >= +0
 R_68_97: +1 y_97 -1 x_68 >= +0
 R_68_99: +1 y_99 -1 x_68 >= +0
 R_69_5: +1 y_5 -1 x_69 >= +0
 R_69_23: +1 y_23 -1 x_69 >= +0
 R_69_77: +1 y_77 -1 x_69 >= +0
 R_70_0: +1 y_0 -1 x_70 >= +0
 R_70_10: +1 y_10 -1 x_70 >= +0
 R_70_26: +1 y_26 -1 x_70 >= +0
 R_70_33: +1 y_33 -1 x_70 >= +0
 R_70_38: +1 y_38 -1 x_70 >= +0
 R_70_55: +1 y_55 -1 x_70 >= +0
 R_70_66: +1 y_66 -1 x_70 >= +0
 R_70_85: +1 y_85 -1 x_70 >= +0
 R_70_88: +1 y_88 -1 x_70 >= +0
 R_71_2: +1 y_2 -1 x_71 >= +0
 R_71_6: +1 y_6 -1 x_71 >= +0
 R_71_27: +1 y_27 -1 x_71 >= +0
 R_71_38: +1 y_38 -1 x_71 >= +0
 R_71_43: +1 y_43 -1 x_71 >= +0
 R_71_46: +1 y_46 -1 x_71 >= +0
 R_71_84: +1 y_84 -1 x_71 >= +0
 R_71_96: +1 y_96 -1 x_71 >= +0
 R_72_3: +1 y_3 -1 x_72 >= +0
 R_72_10: +1 y_10 -1 x_72 >= +0
 R_72_14: +1 y_14 -1 x_72 >= +0
 R_72_15: +1 y_15 -1 x_72 >= +0
 R_72_24: +1 y_24 -1 x_72 >= +0
 R_72_38: +1 y_38 -1 x_72 >= +0
 R_72_47: +1 y_47 -1 x_72 >= +0
 R_72_50: +1 y_50 -1 x_72 >= +0
 R_72_70: +1 y_70 -1 x_72 >= +0
 R_72_83: +1 y_83 -1 x_72 >= +0
 R_72_90: +1 y_90 -1 x_72 >= +0
 R_73_10: +1 y_10 -1 x_73 >= +0
 R_73_11: +1 y_11 -1 x_73 >= +0
 R_73_19: +1 y_19 -1 x_73 >= +0
 R_73_23: +1 y_23 -1 x_73 >= +0
 R_73_35: +1 y_35 -1 x_73 >= +0
 R_73_42: +1 y_42 -1 x_73 >= +0
 R_73_50: +1 y_50 -1 x_73 >= +0
 R_73_81: +1 y_81 -1 x_73 >= +0
 R_73_87: +1 y_87 -1 x_73 >= +0
 R_73_99: +1 y_99 -1 x_73 >= +0
 R_74_5: +1 y_5 -1 x_74 >= +0
 R_74_7: +1 y_7 -1 x_74 >= +0
 R_74_10: +1 y_10 -1 x_74 >= +0
 R_74_18: +1 y_18 -1 x_74 >= +0
 R_74_31: +1 y_31 -1 x_74 >= +0
 R_74_52: +1 y_52 -1 x_74 >= +0
 R_74_55: +1 y_55 -1 x_74 >= +0
 R_74_56: +1 y_56 -1 x_74 >= +0
 R_74_67: +1 y_67 -1 x_74 >= +0
 R_74_68: +1 y_68 -1 x_74 >= +0
 R_74_69: +1 y_69 -1 x_74 >= +0
 R_74_73: +1 y_73 -1 x_74 >= +0
 R_74_77: +1 y_77 -1 x_74 >= +0
 R_74_86: +1 y_86 -1 x_74 >= +0
 R_74_97: +1 y_97 -1 x_74 >= +0
 R_75_6: +1 y_6 -1 x_75 >= +0
 R_75_18: +1 y_18 -1 x_75 >= +0
 R_75_56: +1 y_56 -1 x_75 >= +0
 R_75_59: +1 y_59 -1 x_75 >= +0
 R_75_66: +1 y_66 -1 x_75 >= +0
 R_75_85: +1 y_85 -1 x_75 >= +0
 R_76_12: +1 y_12 -1 x_76 >= +0
 R_76_21: +1 y_21 -1 x_76 >= +0
 R_76_34: +1 y_34 -1 x_76 >= +0
 R_76_43: +1 y_43 -1 x_76 >= +0
 R_76_61: +1 y_61 -1 x_76 >= +0
 R_76_64: +1 y_64 -1 x_76 >= +0
 R_76_91: +1 y_91 -1 x_76 >= +0
 R_77_12: +1 y_12 -1 x_77 >= +0
 R_77_13: +1 y_13 -1 x_77 >= +0
 R_77_14: +1 y_14 -1 x_77 >= +0
 R_77_34: +1 y_34 -1 x_77 >= +0
 R_77_39: +1 y_39 -1 x_77 >= +0
 R_77_56: +1 y_56 -1 x_77 >= +0
 R_77_64: +1 y_64 -1 x_77 >= +0
 R_77_67: +1 y_67 -1 x_77 >= +0
 R_77_75: +1 y_75 -1 x_77 >= +0
 R_77_84: +1 y_84 -1 x_77 >= +0
 R_77_95: +1 y_95 -1 x_77 >= +0
 R_78_38: +1 y_38 -1 x_78 >= +0
 R_78_41: +1 y_41 -1 x_78 >= +0
 R_78_44: +1 y_44 -1 x_78 >= +0
 R_78_56: +1 y_56 -1 x_78 >= +0
 R_79_2: +1 y_2 -1 x_79 >= +0
 R_79_7: +1 y_7 -1 x_79 >= +0
 R_79_22: +1 y_22 -1 x_79 >= +0
 R_79_30: +1 y_30 -1 x_79 >= +0
 R_79_45: +1 y_45 -1 x_79 >= +0
 R_79_46: +1 y_46 -1 x_79 >= +0
 R_79_49: +1 y_49 -1 x_79 >= +0
 R_79_73: +1 y_73 -1 x_79 >= +0
 R_79_89: +1 y_89 -1 x_79 >= +0
 R_79_99: +1 y_99 -1 x_79 >= +0
 R_80_0: +1 y_0 -1 x_80 >= +0
 R_80_11: +1 y_11 -1 x_80 >= +0
 R_80_40: +1 y_40 -1 x_80 >= +0
 R_80_46: +1 y_46 -1 x_80 >= +0
 R_80_48: +1 y_48 -1 x_80 >= +0
 R_80_52: +1 y_52 -1 x_80 >= +0
 R_80_63: +1 y_63 -1 x_80 >= +0
 R_80_79: +1 y_79 -1 x_80 >= +0
 R_80_84: +1 y_84 -1 x_80 >= +0
 R_80_88: +1 y_88 -1 x_80 >= +0
 R_80_90: +1 y_90 -1 x_80 >= +0
 R_81_26: +1 y_26 -1 x_81 >= +0
 R_81_27: +1 y_27 -1 x_81 >= +0
 R_81_70: +1 y_70 -1 x_81 >= +0
 R_81_73: +1 y_73 -1 x_81 >= +0
 R_81_77: +1 y_77 -1 x_81 >= +0
 R_81_85: +1 y_85 -1 x_81 >= +0
 R_81_97: +1 y_97 -1 x_81 >= +0
 R_82_14: +1 y_14 -1 x_82 >= +0
 R_82_17: +1 y_17 -1 x_82 >= +0
 R_82_30: +1 y_30 -1 x_82 >= +0
 R_82_39: +1 y_39 -1 x_82 >= +0
 R_82_65: +1 y_65 -1 x_82 >= +0
 R_82_75: +1 y_75 -1 x_82 >= +0
 R_83_21: +1 y_21 -1 x_83 >= +0
 R_83_47: +1 y_47 -1 x_83 >= +0
 R_83_69: +1 y_69 -1 x_83 >= +0
 R_83_77: +1 y_77 -1 x_83 >= +0
 R_83_79: +1 y_79 -1 x_83 >= +0
 R_83_80: +1 y_80 -1 x_83 >= +0
 R_83_85: +1 y_85 -1 x_83 >= +0
 R_83_93: +1 y_93 -1 x_83 >= +0
 R_84_4: +1 y_4 -1 x_84 >= +0
 R_84_5: +1 y_5 -1 x_84 >= +0
 R_84_11: +1 y_11 -1 x_84 >= +0
 R_84_31: +1 y_31 -1 x_84 >= +0
 R_84_36: +1 y_36 -1 x_84 >= +0
 R_84_49: +1 y_49 -1 x_84 >= +0
 R_84_51: +1 y_51 -1 x_84 >= +0
 R_84_58: +1 y_58 -1 x_84 >= +0
 R_84_69: +1 y_69 -1 x_84 >= +0
 R_84_71: +1 y_71 -1 x_84 >= +0
 R_84_72: +1 y_72 -1 x_84 >= +0
 R_84_73: +1 y_73 -1 x_84 >= +0
 R_84_78: +1 y_78 -1 x_84 >= +0
 R_85_5: +1 y_5 -1 x_85 >= +0
 R_85_13: +1 y_13 -1 x_85 >= +0
 R_85_32: +1 y_32 -1 x_85 >= +0
 R_85_67: +1 y_67 -1 x_85 >= +0
 R_85_85: +1 y_85 -1 x_85 >= +0
 R_85_96: +1 y_96 -1 x_85 >= +0
 R_85_97: +1 y_97 -1 x_85 >= +0
 R_86_6: +1 y_6 -1 x_86 >= +0
 R_86_12: +1 y_12 -1 x_86 >= +0
 R_86_16: +1 y_16 -1 x_86 >= +0
 R_86_20: +1 y_20 -1 x_86 >= +0
 R_86_37: +1 y_37 -1 x_86 >= +0
 R_86_56: +1 y_56 -1 x_86 >= +0
 R_86_57: +1 y_57 -1 x_86 >= +0
 R_86_81: +1 y_81 -1 x_86 >= +0
 R_86_84: +1 y_84 -1 x_86 >= +0
 R_86_91: +1 y_91 -1 x_86 >= +0
 R_87_21: +1 y_21 -1 x_87 >= +0
 R_87_24: +1 y_24 -1 x_87 >= +0
 R_87_39: +1 y_39 -1 x_87 >= +0
 R_87_41: +1 y_41 -1 x_87 >= +0
 R_87_52: +1 y_52 -1 x_87 >= +0
 R_87_55: +1 y_55 -1 x_87 >= +0
 R_87_78: +1 y_78 -1 x_87 >= +0
 R_87_89: +1 y_89 -1 x_87 >= +0
 R_87_94: +1 y_94 -1 x_87 >= +0
 R_88_0: +1 y_0 -1 x_88 >= +0
 R_88_3: +1 y_3 -1 x_88 >= +0
 R_88_6: +1 y_6 -1 x_88 >= +0
 R_88_22: +1 y_22 -1 x_88 >= +0
 R_88_24: +1 y_24 -1 x_88 >= +0
 R_88_46: +1 y_46 -1 x_88 >= +0
 R_88_67: +1 y_67 -1 x_88 >= +0
 R_88_71: +1 y_71 -1 x_88 >= +0
 R_89_2: +1 y_2 -1 x_89 >= +0
 R_89_10: +1 y_10 -1 x_89 >= +0
 R_89_20: +1 y_20 -1 x_89 >= +0
 R_89_35: +1 y_35 -1 x_89 >= +0
 R_89_36: +1 y_36 -1 x_89 >= +0
 R_89_37: +1 y_37 -1 x_89 >= +0
 R_89_40: +1 y_40 -1 x_89 >= +0
 R_89_62: +1 y_62 -1 x_89 >= +0
 R_89_71: +1 y_71 -1 x_89 >= +0
 R_89_94: +1 y_94 -1 x_89 >= +0
 R_89_97: +1 y_97 -1 x_89 >= +0
 R_90_8: +1 y_8 -1 x_90 >= +0
 R_90_11: +1 y_11 -1 x_90 >= +0
 R_90_30: +1 y_30 -1 x_90 >= +0
 R_90_56: +1 y_56 -1 x_90 >= +0
 R_90_58: +1 y_58 -1 x_90 >= +0
 R_90_63: +1 y_63 -1 x_90 >= +0
 R_90_68: +1 y_68 -1 x_90 >= +0
 R_91_1: +1 y_1 -1 x_91 >= +0
 R_91_7: +1 y_7 -1 x_91 >= +0
 R_91_22: +1 y_22 -1 x_91 >= +0
 R_91_47: +1 y_47 -1 x_91 >= +0
 R_91_48: +1 y_48 -1 x_91 >= +0
 R_91_68: +1 y_68 -1 x_91 >= +0
 R_91_90: +1 y_90 -1 x_91 >= +0
 R_91_92: +1 y_92 -1 x_91 >= +0
 R_92_22: +1 y_22 -1 x_92 >= +0
 R_92_25: +1 y_25 -1 x_92 >= +0
 R_92_32: +1 y_32 -1 x_92 >= +0
 R_92_35: +1 y_35 -1 x_92 >= +0
 R_92_44: +1 y_44 -1 x_92 >= +0
 R_92_51: +1 y_51 -1 x_92 >= +0
 R_92_53: +1 y_53 -1 x_92 >= +0
 R_92_57: +1 y_57 -1 x_92 >= +0
 R_92_58: +1 y_58 -1 x_92 >= +0
 R_92_63: +1 y_63 -1 x_92 >= +0
 R_92_67: +1 y_67 -1 x_92 >= +0
 R_92_70: +1 y_70 -1 x_92 >= +0
 R_92_89: +1 y_89 -1 x_92 >= +0
 R_92_97: +1 y_97 -1 x_92 >= +0
 R_92_98: +1 y_98 -1 x_92 >= +0
 R_93_36: +1 y_36 -1 x_93 >= +0
 R_93_37: +1 y_37 -1 x_93 >= +0
 R_93_51: +1 y_51 -1 x_93 >= +0
 R_93_60: +1 y_60 -1 x_93 >= +0
 R_93_65: +1 y_65 -1 x_93 >= +0
 R_93_82: +1 y_82 -1 x_93 >= +0
 R_93_84: +1 y_84 -1 x_93 >= +0
 R_93_86: +1 y_86 -1 x_93 >= +0
 R_94_2: +1 y_2 -1 x_94 >= +0
 R_94_5: +1 y_5 -1 x_94 >= +0
 R_94_8: +1 y_8 -1 x_94 >= +0
 R_94_37: +1 y_37 -1 x_94 >= +0
 R_94_38: +1 y_38 -1 x_94 >= +0
 R_94_40: +1 y_40 -1 x_94 >= +0
 R_94_99: +1 y_99 -1 x_94 >= +0
 R_95_14: +1 y_14 -1 x_95 >= +0
 R_95_38: +1 y_38 -1 x_95 >= +0
 R_95_48: +1 y_48 -1 x_95 >= +0
 R_95_57: +1 y_57 -1 x_95 >= +0
 R_95_97: +1 y_97 -1 x_95 >= +0
 R_96_14: +1 y_14 -1 x_96 >= +0
 R_96_16: +1 y_16 -1 x_96 >= +0
 R_96_17: +1 y_17 -1 x_96 >= +0
 R_96_18: +1 y_18 -1 x_96 >= +0
 R_96_30: +1 y_30 -1 x_96 >= +0
 R_96_34: +1 y_34 -1 x_96 >= +0
 R_96_48: +1 y_48 -1 x_96 >= +0
 R_96_63: +1 y_63 -1 x_96 >= +0
 R_96_82: +1 y_82 -1 x_96 >= +0
 R_96_94: +1 y_94 -1 x_96 >= +0
 R_97_5: +1 y_5 -1 x_97 >= +0
 R_97_13: +1 y_13 -1 x_97 >= +0
 R_97_31: +1 y_31 -1 x_97 >= +0
 R_97_49: +1 y_49 -1 x_97 >= +0
 R_97_51: +1 y_51 -1 x_97 >= +0
 R_97_68: +1 y_68 -1 x_97 >= +0
 R_97_79: +1 y_79 -1 x_97 >= +0
 R_97_90: +1 y_90 -1 x_97 >= +0
 R_98_6: +1 y_6 -1 x_98 >= +0
 R_98_8: +1 y_8 -1 x_98 >= +0
 R_98_10: +1 y_10 -1 x_98 >= +0
 R_98_18: +1 y_18 -1 x_98 >= +0
 R_98_38: +1 y_38 -1 x_98 >= +0
 R_98_41: +1 y_41 -1 x_98 >= +0
 R_98_43: +1 y_43 -1 x_98 >= +0
 R_98_46: +1 y_46 -1 x_98 >= +0
 R_98_53: +1 y_53 -1 x_98 >= +0
 R_98_59: +1 y_59 -1 x_98 >= +0
 R_98_77: +1 y_77 -1 x_98 >= +0
 R_98_80: +1 y_80 -1 x_98 >= +0
 R_99_6: +1 y_6 -1 x_99 >= +0
 R_99_12: +1 y_12 -1 x_99 >= +0
 R_99_13: +1 y_13 -1 x_99 >= +0
 R_99_27: +1 y_27 -1 x_99 >= +0
 R_99_29: +1 y_29 -1 x_99 >= +0
 R_99_45: +1 y_45 -1 x_99 >= +0
 R_99_46: +1 y_46 -1 x_99 >= +0
 R_99_56: +1 y_56 -1 x_99 >= +0
 R_99_64: +1 y_64 -1 x_99 >= +0
 R_99_66: +1 y_66 -1 x_99 >= +0
 R_99_68: +1 y_68 -1 x_99 >= +0
 R_99_71: +1 y_71 -1 x_99 >= +0
 R_99_75: +1 y_75 -1 x_99 >= +0
 R_99_88: +1 y_88 -1 x_99 >= +0
 R_99_92: +1 y_92 -1 x_99 >= +0
Bounds
 0 <= x_0 <= 1
 0 <= x_1 <= 1
 0 <= x_2 <= 1
 0 <= x_3 <= 1
 0 <= x_4 <= 1
 0 <= x_5 <= 1
 0 <= x_6 <= 1
 0 <= x_7 <= 1
 0 <= x_8 <= 1
 0 <= x_9 <= 1
 0 <= x_10 <= 1
 0 <= x_11 <= 1
 0 <= x_12 <= 1
 0 <= x_13 <= 1
 0 <= x_14 <= 1
 0 <= x_15 <= 1
 0 <= x_16 <= 1
 0 <= x_17 <= 1
 0 <= x_18 <= 1
 0 <= x_19 <= 1
 0 <= x_20 <= 1
 0 <= x_21 <= 1
 0 <= x_22 <= 1
 0 <= x_23 <= 1
 0 <= x_24 <= 1
 0 <= x_25 <= 1
 0 <= x_26 <= 1
 0 <= x_27 <= 1
 0 <= x_28 <= 1
 0 <= x_29 <= 1
 0 <= x_30 <= 1
 0 <= x_31 <= 1
 0 <= x_32 <= 1
 0 <= x_33 <= 1
 0 <= x_34 <= 1
 0 <= x_35 <= 1
 0 <= x_36 <= 1
 0 <= x_37 <= 1
 0 <= x_38 <= 1
 0 <= x_39 <= 1
 0 <= x_40 <= 1
 0 <= x_41 <= 1
 0 <= x_42 <= 1
 0 <= x_43 <= 1
 0 <= x_44 <= 1
 0 <= x_45 <= 1
 0 <= x_46 <= 1
 0 <= x_47 <= 1
 0 <= x_48 <= 1
 0 <= x_49 <= 1
 0 <= x_50 <= 1
 0 <= x_51 <= 1
 0 <= x_52 <= 1
 0 <= x_53 <= 1
 0 <= x_54 <= 1
 0 <= x_55 <= 1
 0 <= x_56 <= 1
 0 <= x_57 <= 1
 0 <= x_58 <= 1
 0 <= x_59 <= 1
 0 <= x_60 <= 1
 0 <= x_61 <= 1
 0 <= x_62 <= 1
 0 <= x_63 <= 1
 0 <= x_64 <= 1
 0 <= x_65 <= 1
 0 <= x_66 <= 1
 0 <= x_67 <= 1
 0 <= x_68 <= 1
 0 <= x_69 <= 1
 0 <= x_70 <= 1
 0 <= x_71 <= 1
 0 <= x_72 <= 1
 0 <= x_73 <= 1
 0 <= x_74 <= 1
 0 <= x_75 <= 1
 0 <= x_76 <= 1
 0 <= x_77 <= 1
 0 <= x_78 <= 1
 0 <= x_79 <= 1
 0 <= x_80 <= 1
 0 <= x_81 <= 1
 0 <= x_82 <= 1
 0 <= x_83 <= 1
 0 <= x_84 <= 1
 0 <= x_85 <= 1
 0 <= x_86 <= 1
 0 <= x_87 <= 1
 0 <= x_88 <= 1
 0 <= x_89 <= 1
 0 <= x_90 <= 1
 0 <= x_91 <= 1
 0 <= x_92 <= 1
 0 <= x_93 <= 1
 0 <= x_94 <= 1
 0 <= x_95 <= 1
 0 <= x_96 <= 1
 0 <= x_97 <= 1
 0 <= x_98 <= 1
 0 <= x_99 <= 1
 0 <= y_0 <= 1
 0 <= y_1 <= 1
 0 <= y_2 <= 1
 0 <= y_3 <= 1
 0 <= y_4 <= 1
 0 <= y_5 <= 1
 0 <= y_6 <= 1
 0 <= y_7 <= 1
 0 <= y_8 <= 1
 0 <= y_9 <= 1
 0 <= y_10 <= 1
 0 <= y_11 <= 1
 0 <= y_12 <= 1
 0 <= y_13 <= 1
 0 <= y_14 <= 1
 0 <= y_15 <= 1
 0 <= y_16 <= 1
 0 <= y_17 <= 1
 0 <= y_18 <= 1
 0 <= y_19 <= 1
 0 <= y_20 <= 1
 0 <= y_21 <= 1
 0 <= y_22 <= 1
 0 <= y_23 <= 1
 0 <= y_24 <= 1
 0 <= y_25 <= 1
 0 <= y_26 <= 1
 0 <= y_27 <= 1
 0 <= y_28 <= 1
 0 <= y_29 <= 1
 0 <= y_30 <= 1
 0 <= y_31 <= 1
 0 <= y_32 <= 1
 0 <= y_33 <= 1
 0 <= y_34 <= 1
 0 <= y_35 <= 1
 0 <= y_36 <= 1
 0 <= y_37 <= 1
 0 <= y_38 <= 1
 0 <= y_39 <= 1
 0 <= y_40 <= 1
 0 <= y_41 <= 1
 0 <= y_42 <= 1
 0 <= y_43 <= 1
 0 <= y_44 <= 1
 0 <= y_45 <= 1
 0 <= y_46 <= 1
 0 <= y_47 <= 1
 0 <= y_48 <= 1
 0 <= y_49 <= 1
 0 <= y_50 <= 1
 0 <= y_51 <= 1
 0 <= y_52 <= 1
 0 <= y_53 <= 1
 0 <= y_54 <= 1
 0 <= y_55 <= 1
 0 <= y_56 <= 1
 0 <= y_57 <= 1
 0 <= y_58 <= 1
 0 <= y_59 <= 1
 0 <= y_60 <= 1
 0 <= y_61 <= 1
 0 <= y_62 <= 1
 0 <= y_63 <= 1
 0 <= y_64 <= 1
 0 <= y_65 <= 1
 0 <= y_66 <= 1
 0 <= y_67 <= 1
 0 <= y_68 <= 1
 0 <= y_69 <= 1
 0 <= y_70 <= 1
 0 <= y_71 <= 1
 0 <= y_72 <= 1
 0 <= y_73 <= 1
 0 <= y_74 <= 1
 0 <= y_75 <= 1
 0 <= y_76 <= 1
 0 <= y_77 <= 1
 0 <= y_78 <= 1
 0 <= y_79 <= 1
 0 <= y_80 <= 1
 0 <= y_81 <= 1
 0 <= y_82 <= 1
 0 <= y_83 <= 1
 0 <= y_84 <= 1
 0 <= y_85 <= 1
 0 <= y_86 <= 1
 0 <= y_87 <= 1
 0 <= y_88 <= 1
 0 <= y_89 <= 1
 0 <= y_90 <= 1
 0 <= y_91 <= 1
 0 <= y_92 <= 1
 0 <= y_93 <= 1
 0 <= y_94 <= 1
 0 <= y_95 <= 1
 0 <= y_96 <= 1
 0 <= y_97 <= 1
 0 <= y_98 <= 1
 0 <= y_99 <= 1
Binaries
 x_0 x_1 x_2 x_3 x_4 x_5 x_6 x_7 x_8 x_9 x_10 x_11 x_12 x_13 x_14 x_15 x_16 x_17 x_18 x_19 x_20 x_21 x_22
 x_23 x_24 x_25 x_26 x_27 x_28 x_29 x_30 x_31 x_32 x_33 x_34 x_35 x_36 x_37 x_38 x_39 x_40 x_41 x_42 x_43
 x_44 x_45 x_46 x_47 x_48 x_49 x_50 x_51 x_52 x_53 x_54 x_55 x_56 x_57 x_58 x_59 x_60 x_61 x_62 x_63 x_64
 x_65 x_66 x_67 x_68 x_69 x_70 x_71 x_72 x_73 x_74 x_75 x_76 x_77 x_78 x_79 x_80 x_81 x_82 x_83 x_84 x_85
 x_86 x_87 x_88 x_89 x_90 x_91 x_92 x_93 x_94 x_95 x_96 x_97 x_98 x_99
End
